10 10 3

0 474 53 87 142 268 229 223 488 470 
482 0 54 158 221 120 378 53 385 239 
174 417 0 100 398 147 314 188 156 457 
50 64 80 0 469 488 290 55 336 57 
441 59 251 410 0 247 255 68 174 325 
152 177 417 98 302 0 89 148 406 393 
168 93 499 125 301 270 0 155 269 464 
395 481 300 158 421 65 359 0 330 262 
321 104 386 145 414 269 268 462 0 277 
307 316 183 199 435 433 405 266 233 0 

199 0 2
199 1 2
199 2 6
199 3 4
199 4 3
199 5 2
199 6 1
199 7 0
199 8 3
199 9 8

